Ordonnancement/plne/source/petit_instance/3job/3job_20.dat
data;
param nombreJob := 3;
param nombreRessource := 3;
param duree := 1 9 2 6 3 5;
param capaciteRessource := 1 6 2 10 3 20;
param besoinRessource : 1 2 3 :=
                    1   1 1 7
                    2   2 4 10
                    3   2 4 8;
end;

