Ordonnancement/plne/source/glpk_resultat/3job/3job_20.sol
Problem:    glpsolRcpsp
Rows:       178
Columns:    61 (60 integer, 60 binary)
Non-zeros:  982
Status:     INTEGER OPTIMAL
Objective:  obj = 11 (MINimum)

   No.   Row name        Activity     Lower bound   Upper bound
------ ------------    ------------- ------------- -------------
     1 periode[1]                  9             9             = 
     2 periode[2]                  6             6             = 
     3 periode[3]                  5             5             = 
     4 complet[1,1]                7                           9 
     5 complet[1,2]                6                           9 
     6 complet[1,3]                5                           9 
     7 complet[1,4]                4                           9 
     8 complet[1,5]                3                           9 
     9 complet[1,6]                2                           9 
    10 complet[1,7]                1                           9 
    11 complet[1,8]                0                           9 
    12 complet[1,9]                9                           9 
    13 complet[1,10]
                                   0                           9 
    14 complet[1,11]
                                   0                           9 
    15 complet[1,12]
                                   0                           9 
    16 complet[1,13]
                                   0                           9 
    17 complet[1,14]
                                   0                           9 
    18 complet[1,15]
                                   0                           9 
    19 complet[1,16]
                                   0                           9 
    20 complet[1,17]
                                   0                           9 
    21 complet[1,18]
                                   0                           9 
    22 complet[2,1]                4                           6 
    23 complet[2,2]                3                           6 
    24 complet[2,3]                2                           6 
    25 complet[2,4]                1                           6 
    26 complet[2,5]                0                           6 
    27 complet[2,6]                6                           6 
    28 complet[2,7]                0                           6 
    29 complet[2,8]                0                           6 
    30 complet[2,9]                0                           6 
    31 complet[2,10]
                                   0                           6 
    32 complet[2,11]
                                   0                           6 
    33 complet[2,12]
                                   0                           6 
    34 complet[2,13]
                                   0                           6 
    35 complet[2,14]
                                   0                           6 
    36 complet[2,15]
                                   0                           6 
    37 complet[2,16]
                                   0                           6 
    38 complet[2,17]
                                   0                           6 
    39 complet[2,18]
                                   0                           6 
    40 complet[3,1]                5                           5 
    41 complet[3,2]                5                           5 
    42 complet[3,3]                5                           5 
    43 complet[3,4]                5                           5 
    44 complet[3,5]                5                           5 
    45 complet[3,6]               -1                           5 
    46 complet[3,7]                3                           5 
    47 complet[3,8]                2                           5 
    48 complet[3,9]                1                           5 
    49 complet[3,10]
                                   0                           5 
    50 complet[3,11]
                                   5                           5 
    51 complet[3,12]
                                   0                           5 
    52 complet[3,13]
                                   0                           5 
    53 complet[3,14]
                                   0                           5 
    54 complet[3,15]
                                   0                           5 
    55 complet[3,16]
                                   0                           5 
    56 complet[3,17]
                                   0                           5 
    57 complet[3,18]
                                   0                           5 
    58 cmax[1,1]                  10            -0               
    59 cmax[1,2]                   9            -0               
    60 cmax[1,3]                   8            -0               
    61 cmax[1,4]                   7            -0               
    62 cmax[1,5]                   6            -0               
    63 cmax[1,6]                   5            -0               
    64 cmax[1,7]                   4            -0               
    65 cmax[1,8]                   3            -0               
    66 cmax[1,9]                   2            -0               
    67 cmax[1,10]                 11            -0               
    68 cmax[1,11]                 11            -0               
    69 cmax[1,12]                 11            -0               
    70 cmax[1,13]                 11            -0               
    71 cmax[1,14]                 11            -0               
    72 cmax[1,15]                 11            -0               
    73 cmax[1,16]                 11            -0               
    74 cmax[1,17]                 11            -0               
    75 cmax[1,18]                 11            -0               
    76 cmax[1,19]                 11            -0               
    77 cmax[1,20]                 11            -0               
    78 cmax[2,1]                  10            -0               
    79 cmax[2,2]                   9            -0               
    80 cmax[2,3]                   8            -0               
    81 cmax[2,4]                   7            -0               
    82 cmax[2,5]                   6            -0               
    83 cmax[2,6]                   5            -0               
    84 cmax[2,7]                  11            -0               
    85 cmax[2,8]                  11            -0               
    86 cmax[2,9]                  11            -0               
    87 cmax[2,10]                 11            -0               
    88 cmax[2,11]                 11            -0               
    89 cmax[2,12]                 11            -0               
    90 cmax[2,13]                 11            -0               
    91 cmax[2,14]                 11            -0               
    92 cmax[2,15]                 11            -0               
    93 cmax[2,16]                 11            -0               
    94 cmax[2,17]                 11            -0               
    95 cmax[2,18]                 11            -0               
    96 cmax[2,19]                 11            -0               
    97 cmax[2,20]                 11            -0               
    98 cmax[3,1]                  11            -0               
    99 cmax[3,2]                  11            -0               
   100 cmax[3,3]                  11            -0               
   101 cmax[3,4]                  11            -0               
   102 cmax[3,5]                  11            -0               
   103 cmax[3,6]                  11            -0               
   104 cmax[3,7]                   4            -0               
   105 cmax[3,8]                   3            -0               
   106 cmax[3,9]                   2            -0               
   107 cmax[3,10]                  1            -0               
   108 cmax[3,11]                  0            -0               
   109 cmax[3,12]                 11            -0               
   110 cmax[3,13]                 11            -0               
   111 cmax[3,14]                 11            -0               
   112 cmax[3,15]                 11            -0               
   113 cmax[3,16]                 11            -0               
   114 cmax[3,17]                 11            -0               
   115 cmax[3,18]                 11            -0               
   116 cmax[3,19]                 11            -0               
   117 cmax[3,20]                 11            -0               
   118 ressource[1,1]
                                   3                           6 
   119 ressource[1,2]
                                   3                           6 
   120 ressource[1,3]
                                   3                           6 
   121 ressource[1,4]
                                   3                           6 
   122 ressource[1,5]
                                   3                           6 
   123 ressource[1,6]
                                   3                           6 
   124 ressource[1,7]
                                   3                           6 
   125 ressource[1,8]
                                   3                           6 
   126 ressource[1,9]
                                   3                           6 
   127 ressource[1,10]
                                   2                           6 
   128 ressource[1,11]
                                   2                           6 
   129 ressource[1,12]
                                   0                           6 
   130 ressource[1,13]
                                   0                           6 
   131 ressource[1,14]
                                   0                           6 
   132 ressource[1,15]
                                   0                           6 
   133 ressource[1,16]
                                   0                           6 
   134 ressource[1,17]
                                   0                           6 
   135 ressource[1,18]
                                   0                           6 
   136 ressource[1,19]
                                   0                           6 
   137 ressource[1,20]
                                   0                           6 
   138 ressource[2,1]
                                   5                          10 
   139 ressource[2,2]
                                   5                          10 
   140 ressource[2,3]
                                   5                          10 
   141 ressource[2,4]
                                   5                          10 
   142 ressource[2,5]
                                   5                          10 
   143 ressource[2,6]
                                   5                          10 
   144 ressource[2,7]
                                   5                          10 
   145 ressource[2,8]
                                   5                          10 
   146 ressource[2,9]
                                   5                          10 
   147 ressource[2,10]
                                   4                          10 
   148 ressource[2,11]
                                   4                          10 
   149 ressource[2,12]
                                   0                          10 
   150 ressource[2,13]
                                   0                          10 
   151 ressource[2,14]
                                   0                          10 
   152 ressource[2,15]
                                   0                          10 
   153 ressource[2,16]
                                   0                          10 
   154 ressource[2,17]
                                   0                          10 
   155 ressource[2,18]
                                   0                          10 
   156 ressource[2,19]
                                   0                          10 
   157 ressource[2,20]
                                   0                          10 
   158 ressource[3,1]
                                  17                          20 
   159 ressource[3,2]
                                  17                          20 
   160 ressource[3,3]
                                  17                          20 
   161 ressource[3,4]
                                  17                          20 
   162 ressource[3,5]
                                  17                          20 
   163 ressource[3,6]
                                  17                          20 
   164 ressource[3,7]
                                  15                          20 
   165 ressource[3,8]
                                  15                          20 
   166 ressource[3,9]
                                  15                          20 
   167 ressource[3,10]
                                   8                          20 
   168 ressource[3,11]
                                   8                          20 
   169 ressource[3,12]
                                   0                          20 
   170 ressource[3,13]
                                   0                          20 
   171 ressource[3,14]
                                   0                          20 
   172 ressource[3,15]
                                   0                          20 
   173 ressource[3,16]
                                   0                          20 
   174 ressource[3,17]
                                   0                          20 
   175 ressource[3,18]
                                   0                          20 
   176 ressource[3,19]
                                   0                          20 
   177 ressource[3,20]
                                   0                          20 
   178 obj                        11                             

   No. Column name       Activity     Lower bound   Upper bound
------ ------------    ------------- ------------- -------------
     1 x[1,1]       *              1             0             1 
     2 x[1,2]       *              1             0             1 
     3 x[1,3]       *              1             0             1 
     4 x[1,4]       *              1             0             1 
     5 x[1,5]       *              1             0             1 
     6 x[1,6]       *              1             0             1 
     7 x[1,7]       *              1             0             1 
     8 x[1,8]       *              1             0             1 
     9 x[1,9]       *              1             0             1 
    10 x[1,10]      *              0             0             1 
    11 x[1,11]      *              0             0             1 
    12 x[1,12]      *              0             0             1 
    13 x[1,13]      *              0             0             1 
    14 x[1,14]      *              0             0             1 
    15 x[1,15]      *              0             0             1 
    16 x[1,16]      *              0             0             1 
    17 x[1,17]      *              0             0             1 
    18 x[1,18]      *              0             0             1 
    19 x[1,19]      *              0             0             1 
    20 x[1,20]      *              0             0             1 
    21 x[2,1]       *              1             0             1 
    22 x[2,2]       *              1             0             1 
    23 x[2,3]       *              1             0             1 
    24 x[2,4]       *              1             0             1 
    25 x[2,5]       *              1             0             1 
    26 x[2,6]       *              1             0             1 
    27 x[2,7]       *              0             0             1 
    28 x[2,8]       *              0             0             1 
    29 x[2,9]       *              0             0             1 
    30 x[2,10]      *              0             0             1 
    31 x[2,11]      *              0             0             1 
    32 x[2,12]      *              0             0             1 
    33 x[2,13]      *              0             0             1 
    34 x[2,14]      *              0             0             1 
    35 x[2,15]      *              0             0             1 
    36 x[2,16]      *              0             0             1 
    37 x[2,17]      *              0             0             1 
    38 x[2,18]      *              0             0             1 
    39 x[2,19]      *              0             0             1 
    40 x[2,20]      *              0             0             1 
    41 x[3,1]       *              0             0             1 
    42 x[3,2]       *              0             0             1 
    43 x[3,3]       *              0             0             1 
    44 x[3,4]       *              0             0             1 
    45 x[3,5]       *              0             0             1 
    46 x[3,6]       *              0             0             1 
    47 x[3,7]       *              1             0             1 
    48 x[3,8]       *              1             0             1 
    49 x[3,9]       *              1             0             1 
    50 x[3,10]      *              1             0             1 
    51 x[3,11]      *              1             0             1 
    52 x[3,12]      *              0             0             1 
    53 x[3,13]      *              0             0             1 
    54 x[3,14]      *              0             0             1 
    55 x[3,15]      *              0             0             1 
    56 x[3,16]      *              0             0             1 
    57 x[3,17]      *              0             0             1 
    58 x[3,18]      *              0             0             1 
    59 x[3,19]      *              0             0             1 
    60 x[3,20]      *              0             0             1 
    61 z                          11                             

Integer feasibility conditions:

KKT.PE: max.abs.err = 0.00e+00 on row 0
        max.rel.err = 0.00e+00 on row 0
        High quality

KKT.PB: max.abs.err = 0.00e+00 on row 0
        max.rel.err = 0.00e+00 on row 0
        High quality

End of output
